; printing sygus problem  

(set-logic LIA)
(declare-var yearInt_147-8-147-37 Int)

(synth-fun f_147-8-147-37((yearInt Int)) Bool
((NTbool Bool)(NTInt Int))
((NTbool Bool ((not NTbool) (and NTbool NTbool) (or NTbool NTbool) (ite NTbool NTbool NTbool) (= NTInt NTInt) (< NTInt NTInt) (> NTInt NTInt) ))
(NTInt Int (yearInt 0 1 (- NTInt) (+ NTInt NTInt) (- NTInt NTInt) (ite NTbool NTInt NTInt) ))
)
)

(constraint (or (and (=> (= yearInt_147-8-147-37 1980) (= (f_147-8-147-37 yearInt_147-8-147-37 ) true)) (and (=> (= yearInt_147-8-147-37 80) (= (f_147-8-147-37 yearInt_147-8-147-37 ) true)) (and (=> (= yearInt_147-8-147-37 89) (= (f_147-8-147-37 yearInt_147-8-147-37 ) true)) (and (=> (= yearInt_147-8-147-37 1980) (= (f_147-8-147-37 yearInt_147-8-147-37 ) true)) (and (=> (= yearInt_147-8-147-37 1980) (= (f_147-8-147-37 yearInt_147-8-147-37 ) true)) (and (=> (= yearInt_147-8-147-37 2010) (= (f_147-8-147-37 yearInt_147-8-147-37 ) false)) (and (=> (= yearInt_147-8-147-37 1980) (= (f_147-8-147-37 yearInt_147-8-147-37 ) true)) (and (=> (= yearInt_147-8-147-37 1980) (= (f_147-8-147-37 yearInt_147-8-147-37 ) true)) (and (=> (= yearInt_147-8-147-37 1980) (= (f_147-8-147-37 yearInt_147-8-147-37 ) true)) (=> (= yearInt_147-8-147-37 1980) (= (f_147-8-147-37 yearInt_147-8-147-37 ) true))))))))))) (and (=> (= yearInt_147-8-147-37 1980) (= (f_147-8-147-37 yearInt_147-8-147-37 ) true)) (and (=> (= yearInt_147-8-147-37 80) (= (f_147-8-147-37 yearInt_147-8-147-37 ) true)) (and (=> (= yearInt_147-8-147-37 89) (= (f_147-8-147-37 yearInt_147-8-147-37 ) true)) (and (=> (= yearInt_147-8-147-37 1980) (= (f_147-8-147-37 yearInt_147-8-147-37 ) true)) (and (=> (= yearInt_147-8-147-37 1980) (= (f_147-8-147-37 yearInt_147-8-147-37 ) true)) (and (=> (= yearInt_147-8-147-37 2010) (= (f_147-8-147-37 yearInt_147-8-147-37 ) true)) (and (=> (= yearInt_147-8-147-37 1980) (= (f_147-8-147-37 yearInt_147-8-147-37 ) true)) (and (=> (= yearInt_147-8-147-37 1980) (= (f_147-8-147-37 yearInt_147-8-147-37 ) true)) (and (=> (= yearInt_147-8-147-37 1980) (= (f_147-8-147-37 yearInt_147-8-147-37 ) true)) (=> (= yearInt_147-8-147-37 1980) (= (f_147-8-147-37 yearInt_147-8-147-37 ) true)))))))))))))
(constraint (or (and (=> (= yearInt_147-8-147-37 2009) (= (f_147-8-147-37 yearInt_147-8-147-37 ) true)) (and (=> (= yearInt_147-8-147-37 2010) (= (f_147-8-147-37 yearInt_147-8-147-37 ) true)) (and (=> (= yearInt_147-8-147-37 0) (= (f_147-8-147-37 yearInt_147-8-147-37 ) true)) (and (=> (= yearInt_147-8-147-37 12) (= (f_147-8-147-37 yearInt_147-8-147-37 ) true)) (and (=> (= yearInt_147-8-147-37 1979) (= (f_147-8-147-37 yearInt_147-8-147-37 ) true)) (and (=> (= yearInt_147-8-147-37 1978) (= (f_147-8-147-37 yearInt_147-8-147-37 ) true)) (and (=> (= yearInt_147-8-147-37 2010) (= (f_147-8-147-37 yearInt_147-8-147-37 ) true)) (and (=> (= yearInt_147-8-147-37 2006) (= (f_147-8-147-37 yearInt_147-8-147-37 ) true)) (and (=> (= yearInt_147-8-147-37 1980) (= (f_147-8-147-37 yearInt_147-8-147-37 ) true)) (and (=> (= yearInt_147-8-147-37 2006) (= (f_147-8-147-37 yearInt_147-8-147-37 ) true)) (=> (= yearInt_147-8-147-37 80) (= (f_147-8-147-37 yearInt_147-8-147-37 ) true)))))))))))) (and (=> (= yearInt_147-8-147-37 0) (= (f_147-8-147-37 yearInt_147-8-147-37 ) true)) (and (=> (= yearInt_147-8-147-37 2009) (= (f_147-8-147-37 yearInt_147-8-147-37 ) true)) (and (=> (= yearInt_147-8-147-37 2010) (= (f_147-8-147-37 yearInt_147-8-147-37 ) false)) (and (=> (= yearInt_147-8-147-37 2010) (= (f_147-8-147-37 yearInt_147-8-147-37 ) true)) (and (=> (= yearInt_147-8-147-37 12) (= (f_147-8-147-37 yearInt_147-8-147-37 ) true)) (and (=> (= yearInt_147-8-147-37 2006) (= (f_147-8-147-37 yearInt_147-8-147-37 ) true)) (and (=> (= yearInt_147-8-147-37 1978) (= (f_147-8-147-37 yearInt_147-8-147-37 ) true)) (and (=> (= yearInt_147-8-147-37 2006) (= (f_147-8-147-37 yearInt_147-8-147-37 ) true)) (and (=> (= yearInt_147-8-147-37 80) (= (f_147-8-147-37 yearInt_147-8-147-37 ) true)) (and (=> (= yearInt_147-8-147-37 1980) (= (f_147-8-147-37 yearInt_147-8-147-37 ) true)) (and (=> (= yearInt_147-8-147-37 20) (= (f_147-8-147-37 yearInt_147-8-147-37 ) false)) (=> (= yearInt_147-8-147-37 1979) (= (f_147-8-147-37 yearInt_147-8-147-37 ) true)))))))))))))))
(check-synth)


